\* Problem: Unknown *\

Maximize
 obj: + 9900000 j2_d1 + 100000 r3_volGoal + 100000 r4_volGoal
 + 100000 r5_volGoal + 100000 r6_volGoal + 100000 r7_volGoal

Subject To
 r_0: + r3_volGoal + r3_z1_j2 <= 69.4804840190445
 r_1: + r4_volGoal + r4_z1_j2 <= 69.4804840190445
 r_2: + j2_d1 = 10.7136
 r_3: - r4_z1_j2 - r3_z1_j2 + j2_d1 = 0
 r_4: + r3_volGoal <= 68.44
 r_5: + r4_volGoal <= 68.44
 r_6: + r5_volGoal <= 68.44
 r_7: + r6_volGoal <= 68.44
 r_8: + r7_volGoal <= 68.44

End
